c instance by G2
c solution = 011101011110100011100
c Known solution cost is 1096 
p cnf 21 30
w 64 87 64 21 61 15 27 22 79 51 81 87 14 38 76 0 44 57 67 90 51
9 14 -15 0
18 -4 1 0
-17 -7 -13 0
-21 -11 -4 0
-17 -2 3 0
-14 -11 -18 0
17 5 21 0
-15 7 -8 0
-2 5 11 0
-3 -11 6 0
-17 14 9 0
-9 -13 2 0
5 14 10 0
12 -3 -20 0
-1 -9 -5 0
20 -8 19 0
13 -17 -10 0
5 1 -16 0
-19 1 -5 0
-17 -4 3 0
6 5 -19 0
-3 -20 -6 0
-2 5 4 0
20 -19 -12 0
-13 -1 21 0
8 -19 -17 0
11 15 12 0
-18 -11 6 0
-12 -6 14 0
-14 13 9 0
